data;
param n:=50;
param w:=1 -194 2 39 3 -164 4 98 5 117 6 171 7 -34 8 155 9 -156 10 -101 11 200 12 119 13 -203 14 -85 15 175 16 -79 17 -237 18 211 19 153 20 -138 21 198 22 163 23 -47 24 -161 25 145 26 27 27 -242 28 -16 29 -143 30 -20 31 48 32 23 33 -31 34 -206 35 105 36 -121 37 -57 38 186 39 -32 40 64 41 56 42 -35 43 17 44 53 45 -1 46 -90 47 172 48 -218 49 -108 50 224;
